NAME: tsp10_27
COMMENT: 10-tsp problem (Padberg/Rinaldi)
TYPE: TSP
DIMENSION: 10
EDGE_WEIGHT_TYPE : EUC_2D
NODE_COORD_SECTION
1 25 40
2 3 13
3 11 7
4 4 6
5 35 27
6 36 11
7 0 13
8 36 20
9 35 14
10 39 31
